839 959 404 524
713 833 387 507
748 868 360 471
894 1014 365 485
717 837 440 560
725 845 409 529
692 812 436 556
831 951 360 480
794 914 389 509
831 951 463 583
868 988 437 557
824 944 460 580
895 1015 382 502
694 814 433 553
763 883 415 535
836 956 417 537
714 834 360 461
846 966 424 544
826 946 424 544
877 997 368 488
737 857 401 521
816 936 371 491
713 833 418 538
870 990 438 558
692 812 393 513
789 909 422 542
768 888 376 496
734 854 404 524
759 879 393 513
867 987 376 496
884 1004 407 527
911 1031 418 538
842 962 366 486
711 831 383 503
822 942 471 591
739 859 418 538
791 911 404 524
955 1075 387 507
785 905 377 497
779 899 396 516
763 883 360 473
1059 1179 428 548
809 929 369 489
852 972 360 469
753 873 388 508
853 973 360 458
785 905 360 476
782 902 474 594
918 1038 360 459
1013 1133 392 512
